p cnf 1578
-20 -496
-21 -499
-22 -502
-23 -505
-24 -508
-25 -511
-26 -514
-27 -517
-28 -520
-29 -523
-30 -526
-31 -529
-32 -532
-33 -535
-34 -538
-35 -541
-36 -544
-37 -547
-38 -550
-39 551
-40 552
-41 553
-42 554
-43 555
-44 556
-45 557
-46 558
-47 559
-48 560
-49 561
-50 562
-51 563
-52 564
-53 565
-54 566
-55 -21
-55 -22
21 22 55
-56 -23
-56 -24
23 24 56
-57 -25
-57 -26
25 26 57
-58 -27
-58 -28
27 28 58
-59 -29
-59 -30
29 30 59
-60 -31
-60 -32
31 32 60
-61 -33
-61 -34
33 34 61
-62 -35
-62 -36
35 36 62
-63 -37
-63 -38
37 38 63
-64 -39
-64 -40
39 40 64
-65 -41
-65 -42
41 42 65
-66 -43
-66 -44
43 44 66
-67 -45
-67 -46
45 46 67
-68 -47
-68 -48
47 48 68
-69 -49
-69 -50
49 50 69
-70 -51
-70 -52
51 52 70
-71 -53
-71 -54
53 54 71
-72 55
-72 56
-55 -56 72
-73 57
-73 58
-57 -58 73
-74 59
-74 60
-59 -60 74
-75 61
-75 62
-61 -62 75
-76 63
-76 64
-63 -64 76
-77 65
-77 66
-65 -66 77
-78 67
-78 68
-67 -68 78
-79 69
-79 70
-69 -70 79
-80 72
-80 73
-72 -73 80
-81 74
-81 75
-74 -75 81
-82 76
-82 77
-76 -77 82
-83 78
-83 79
-78 -79 83
-84 80
-84 81
-80 -81 84
-85 82
-85 83
-82 -83 85
-86 84
-86 85
-84 -85 86
-87 71
-87 86
-71 -86 87
-88 -20
-88 21
20 -21 88
-89 20
-89 -21
-20 21 89
-90 -88
-90 -89
88 89 90
-91 20
-91 21
-20 -21 91
-92 -20
-92 -90
20 90 92
-93 20
-93 90
-20 -90 93
-94 -92
-94 -93
92 93 94
-95 20
-95 -90
-20 90 95
-96 -91
-96 -95
91 95 96
-97 -21
-97 22
21 -22 97
-98 21
-98 -22
-21 22 98
-99 -97
-99 -98
97 98 99
-100 21
-100 22
-21 -22 100
-101 96
-101 -99
-96 99 101
-102 -96
-102 99
96 -99 102
-103 -101
-103 -102
101 102 103
-104 -96
-104 -99
96 99 104
-105 -100
-105 -104
100 104 105
-106 -22
-106 23
22 -23 106
-107 22
-107 -23
-22 23 107
-108 -106
-108 -107
106 107 108
-109 22
-109 23
-22 -23 109
-110 105
-110 -108
-105 108 110
-111 -105
-111 108
105 -108 111
-112 -110
-112 -111
110 111 112
-113 -105
-113 -108
105 108 113
-114 -109
-114 -113
109 113 114
-115 -23
-115 24
23 -24 115
-116 23
-116 -24
-23 24 116
-117 -115
-117 -116
115 116 117
-118 23
-118 24
-23 -24 118
-119 114
-119 -117
-114 117 119
-120 -114
-120 117
114 -117 120
-121 -119
-121 -120
119 120 121
-122 -114
-122 -117
114 117 122
-123 -118
-123 -122
118 122 123
-124 -24
-124 25
24 -25 124
-125 24
-125 -25
-24 25 125
-126 -124
-126 -125
124 125 126
-127 24
-127 25
-24 -25 127
-128 123
-128 -126
-123 126 128
-129 -123
-129 126
123 -126 129
-130 -128
-130 -129
128 129 130
-131 -123
-131 -126
123 126 131
-132 -127
-132 -131
127 131 132
-133 -25
-133 26
25 -26 133
-134 25
-134 -26
-25 26 134
-135 -133
-135 -134
133 134 135
-136 25
-136 26
-25 -26 136
-137 132
-137 -135
-132 135 137
-138 -132
-138 135
132 -135 138
-139 -137
-139 -138
137 138 139
-140 -132
-140 -135
132 135 140
-141 -136
-141 -140
136 140 141
-142 -26
-142 27
26 -27 142
-143 26
-143 -27
-26 27 143
-144 -142
-144 -143
142 143 144
-145 26
-145 27
-26 -27 145
-146 141
-146 -144
-141 144 146
-147 -141
-147 144
141 -144 147
-148 -146
-148 -147
146 147 148
-149 -141
-149 -144
141 144 149
-150 -145
-150 -149
145 149 150
-151 -27
-151 28
27 -28 151
-152 27
-152 -28
-27 28 152
-153 -151
-153 -152
151 152 153
-154 27
-154 28
-27 -28 154
-155 150
-155 -153
-150 153 155
-156 -150
-156 153
150 -153 156
-157 -155
-157 -156
155 156 157
-158 -150
-158 -153
150 153 158
-159 -154
-159 -158
154 158 159
-160 -28
-160 29
28 -29 160
-161 28
-161 -29
-28 29 161
-162 -160
-162 -161
160 161 162
-163 28
-163 29
-28 -29 163
-164 159
-164 -162
-159 162 164
-165 -159
-165 162
159 -162 165
-166 -164
-166 -165
164 165 166
-167 -159
-167 -162
159 162 167
-168 -163
-168 -167
163 167 168
-169 -29
-169 30
29 -30 169
-170 29
-170 -30
-29 30 170
-171 -169
-171 -170
169 170 171
-172 29
-172 30
-29 -30 172
-173 168
-173 -171
-168 171 173
-174 -168
-174 171
168 -171 174
-175 -173
-175 -174
173 174 175
-176 -168
-176 -171
168 171 176
-177 -172
-177 -176
172 176 177
-178 -30
-178 31
30 -31 178
-179 30
-179 -31
-30 31 179
-180 -178
-180 -179
178 179 180
-181 30
-181 31
-30 -31 181
-182 177
-182 -180
-177 180 182
-183 -177
-183 180
177 -180 183
-184 -182
-184 -183
182 183 184
-185 -177
-185 -180
177 180 185
-186 -181
-186 -185
181 185 186
-187 -31
-187 32
31 -32 187
-188 31
-188 -32
-31 32 188
-189 -187
-189 -188
187 188 189
-190 31
-190 32
-31 -32 190
-191 186
-191 -189
-186 189 191
-192 -186
-192 189
186 -189 192
-193 -191
-193 -192
191 192 193
-194 -186
-194 -189
186 189 194
-195 -190
-195 -194
190 194 195
-196 -32
-196 33
32 -33 196
-197 32
-197 -33
-32 33 197
-198 -196
-198 -197
196 197 198
-199 32
-199 33
-32 -33 199
-200 195
-200 -198
-195 198 200
-201 -195
-201 198
195 -198 201
-202 -200
-202 -201
200 201 202
-203 -195
-203 -198
195 198 203
-204 -199
-204 -203
199 203 204
-205 -33
-205 34
33 -34 205
-206 33
-206 -34
-33 34 206
-207 -205
-207 -206
205 206 207
-208 33
-208 34
-33 -34 208
-209 204
-209 -207
-204 207 209
-210 -204
-210 207
204 -207 210
-211 -209
-211 -210
209 210 211
-212 -204
-212 -207
204 207 212
-213 -208
-213 -212
208 212 213
-214 -34
-214 35
34 -35 214
-215 34
-215 -35
-34 35 215
-216 -214
-216 -215
214 215 216
-217 34
-217 35
-34 -35 217
-218 213
-218 -216
-213 216 218
-219 -213
-219 216
213 -216 219
-220 -218
-220 -219
218 219 220
-221 -213
-221 -216
213 216 221
-222 -217
-222 -221
217 221 222
-223 -35
-223 36
35 -36 223
-224 35
-224 -36
-35 36 224
-225 -223
-225 -224
223 224 225
-226 35
-226 36
-35 -36 226
-227 222
-227 -225
-222 225 227
-228 -222
-228 225
222 -225 228
-229 -227
-229 -228
227 228 229
-230 -222
-230 -225
222 225 230
-231 -226
-231 -230
226 230 231
-232 -36
-232 37
36 -37 232
-233 36
-233 -37
-36 37 233
-234 -232
-234 -233
232 233 234
-235 36
-235 37
-36 -37 235
-236 231
-236 -234
-231 234 236
-237 -231
-237 234
231 -234 237
-238 -236
-238 -237
236 237 238
-239 -231
-239 -234
231 234 239
-240 -235
-240 -239
235 239 240
-241 -37
-241 38
37 -38 241
-242 37
-242 -38
-37 38 242
-243 -241
-243 -242
241 242 243
-244 37
-244 38
-37 -38 244
-245 240
-245 -243
-240 243 245
-246 -240
-246 243
240 -243 246
-247 -245
-247 -246
245 246 247
-248 -240
-248 -243
240 243 248
-249 -244
-249 -248
244 248 249
-250 -38
-250 39
38 -39 250
-251 38
-251 -39
-38 39 251
-252 -250
-252 -251
250 251 252
-253 38
-253 39
-38 -39 253
-254 249
-254 -252
-249 252 254
-255 -249
-255 252
249 -252 255
-256 -254
-256 -255
254 255 256
-257 -249
-257 -252
249 252 257
-258 -253
-258 -257
253 257 258
-259 -39
-259 40
39 -40 259
-260 39
-260 -40
-39 40 260
-261 -259
-261 -260
259 260 261
-262 39
-262 40
-39 -40 262
-263 258
-263 -261
-258 261 263
-264 -258
-264 261
258 -261 264
-265 -263
-265 -264
263 264 265
-266 -258
-266 -261
258 261 266
-267 -262
-267 -266
262 266 267
-268 -40
-268 41
40 -41 268
-269 40
-269 -41
-40 41 269
-270 -268
-270 -269
268 269 270
-271 40
-271 41
-40 -41 271
-272 267
-272 -270
-267 270 272
-273 -267
-273 270
267 -270 273
-274 -272
-274 -273
272 273 274
-275 -267
-275 -270
267 270 275
-276 -271
-276 -275
271 275 276
-277 -41
-277 42
41 -42 277
-278 41
-278 -42
-41 42 278
-279 -277
-279 -278
277 278 279
-280 41
-280 42
-41 -42 280
-281 276
-281 -279
-276 279 281
-282 -276
-282 279
276 -279 282
-283 -281
-283 -282
281 282 283
-284 -276
-284 -279
276 279 284
-285 -280
-285 -284
280 284 285
-286 -42
-286 43
42 -43 286
-287 42
-287 -43
-42 43 287
-288 -286
-288 -287
286 287 288
-289 42
-289 43
-42 -43 289
-290 285
-290 -288
-285 288 290
-291 -285
-291 288
285 -288 291
-292 -290
-292 -291
290 291 292
-293 -285
-293 -288
285 288 293
-294 -289
-294 -293
289 293 294
-295 -43
-295 44
43 -44 295
-296 43
-296 -44
-43 44 296
-297 -295
-297 -296
295 296 297
-298 43
-298 44
-43 -44 298
-299 294
-299 -297
-294 297 299
-300 -294
-300 297
294 -297 300
-301 -299
-301 -300
299 300 301
-302 -294
-302 -297
294 297 302
-303 -298
-303 -302
298 302 303
-304 -44
-304 45
44 -45 304
-305 44
-305 -45
-44 45 305
-306 -304
-306 -305
304 305 306
-307 44
-307 45
-44 -45 307
-308 303
-308 -306
-303 306 308
-309 -303
-309 306
303 -306 309
-310 -308
-310 -309
308 309 310
-311 -303
-311 -306
303 306 311
-312 -307
-312 -311
307 311 312
-313 -45
-313 46
45 -46 313
-314 45
-314 -46
-45 46 314
-315 -313
-315 -314
313 314 315
-316 45
-316 46
-45 -46 316
-317 312
-317 -315
-312 315 317
-318 -312
-318 315
312 -315 318
-319 -317
-319 -318
317 318 319
-320 -312
-320 -315
312 315 320
-321 -316
-321 -320
316 320 321
-322 -46
-322 47
46 -47 322
-323 46
-323 -47
-46 47 323
-324 -322
-324 -323
322 323 324
-325 46
-325 47
-46 -47 325
-326 321
-326 -324
-321 324 326
-327 -321
-327 324
321 -324 327
-328 -326
-328 -327
326 327 328
-329 -321
-329 -324
321 324 329
-330 -325
-330 -329
325 329 330
-331 -47
-331 48
47 -48 331
-332 47
-332 -48
-47 48 332
-333 -331
-333 -332
331 332 333
-334 47
-334 48
-47 -48 334
-335 330
-335 -333
-330 333 335
-336 -330
-336 333
330 -333 336
-337 -335
-337 -336
335 336 337
-338 -330
-338 -333
330 333 338
-339 -334
-339 -338
334 338 339
-340 -48
-340 49
48 -49 340
-341 48
-341 -49
-48 49 341
-342 -340
-342 -341
340 341 342
-343 48
-343 49
-48 -49 343
-344 339
-344 -342
-339 342 344
-345 -339
-345 342
339 -342 345
-346 -344
-346 -345
344 345 346
-347 -339
-347 -342
339 342 347
-348 -343
-348 -347
343 347 348
-349 -49
-349 50
49 -50 349
-350 49
-350 -50
-49 50 350
-351 -349
-351 -350
349 350 351
-352 49
-352 50
-49 -50 352
-353 348
-353 -351
-348 351 353
-354 -348
-354 351
348 -351 354
-355 -353
-355 -354
353 354 355
-356 -348
-356 -351
348 351 356
-357 -352
-357 -356
352 356 357
-358 -50
-358 51
50 -51 358
-359 50
-359 -51
-50 51 359
-360 -358
-360 -359
358 359 360
-361 50
-361 51
-50 -51 361
-362 357
-362 -360
-357 360 362
-363 -357
-363 360
357 -360 363
-364 -362
-364 -363
362 363 364
-365 -357
-365 -360
357 360 365
-366 -361
-366 -365
361 365 366
-367 -51
-367 52
51 -52 367
-368 51
-368 -52
-51 52 368
-369 -367
-369 -368
367 368 369
-370 51
-370 52
-51 -52 370
-371 366
-371 -369
-366 369 371
-372 -366
-372 369
366 -369 372
-373 -371
-373 -372
371 372 373
-374 -366
-374 -369
366 369 374
-375 -370
-375 -374
370 374 375
-376 -52
-376 53
52 -53 376
-377 52
-377 -53
-52 53 377
-378 -376
-378 -377
376 377 378
-379 52
-379 53
-52 -53 379
-380 375
-380 -378
-375 378 380
-381 -375
-381 378
375 -378 381
-382 -380
-382 -381
380 381 382
-383 -375
-383 -378
375 378 383
-384 -379
-384 -383
379 383 384
-385 -53
-385 54
53 -54 385
-386 53
-386 -54
-53 54 386
-387 -385
-387 -386
385 386 387
-388 53
-388 54
-53 -54 388
-389 384
-389 -387
-384 387 389
-390 -384
-390 387
384 -387 390
-391 -389
-391 -390
389 390 391
-392 -384
-392 -387
384 387 392
-393 -388
-393 -392
388 392 393
-394 20
-394 -94
-20 94 394
-395 -20
-395 22
20 -22 395
-396 -394
-396 -395
394 395 396
-397 20
-397 -103
-20 103 397
-398 -20
-398 23
20 -23 398
-399 -397
-399 -398
397 398 399
-400 20
-400 -112
-20 112 400
-401 -20
-401 24
20 -24 401
-402 -400
-402 -401
400 401 402
-403 20
-403 -121
-20 121 403
-404 -20
-404 25
20 -25 404
-405 -403
-405 -404
403 404 405
-406 20
-406 -130
-20 130 406
-407 -20
-407 26
20 -26 407
-408 -406
-408 -407
406 407 408
-409 20
-409 -139
-20 139 409
-410 -20
-410 27
20 -27 410
-411 -409
-411 -410
409 410 411
-412 20
-412 -148
-20 148 412
-413 -20
-413 28
20 -28 413
-414 -412
-414 -413
412 413 414
-415 20
-415 -157
-20 157 415
-416 -20
-416 29
20 -29 416
-417 -415
-417 -416
415 416 417
-418 20
-418 -166
-20 166 418
-419 -20
-419 30
20 -30 419
-420 -418
-420 -419
418 419 420
-421 20
-421 -175
-20 175 421
-422 -20
-422 31
20 -31 422
-423 -421
-423 -422
421 422 423
-424 20
-424 -184
-20 184 424
-425 -20
-425 32
20 -32 425
-426 -424
-426 -425
424 425 426
-427 20
-427 -193
-20 193 427
-428 -20
-428 33
20 -33 428
-429 -427
-429 -428
427 428 429
-430 20
-430 -202
-20 202 430
-431 -20
-431 34
20 -34 431
-432 -430
-432 -431
430 431 432
-433 20
-433 -211
-20 211 433
-434 -20
-434 35
20 -35 434
-435 -433
-435 -434
433 434 435
-436 20
-436 -220
-20 220 436
-437 -20
-437 36
20 -36 437
-438 -436
-438 -437
436 437 438
-439 20
-439 -229
-20 229 439
-440 -20
-440 37
20 -37 440
-441 -439
-441 -440
439 440 441
-442 20
-442 -238
-20 238 442
-443 -20
-443 38
20 -38 443
-444 -442
-444 -443
442 443 444
-445 20
-445 -247
-20 247 445
-446 -20
-446 39
20 -39 446
-447 -445
-447 -446
445 446 447
-448 20
-448 -256
-20 256 448
-449 -20
-449 40
20 -40 449
-450 -448
-450 -449
448 449 450
-451 20
-451 -265
-20 265 451
-452 -20
-452 41
20 -41 452
-453 -451
-453 -452
451 452 453
-454 20
-454 -274
-20 274 454
-455 -20
-455 42
20 -42 455
-456 -454
-456 -455
454 455 456
-457 20
-457 -283
-20 283 457
-458 -20
-458 43
20 -43 458
-459 -457
-459 -458
457 458 459
-460 20
-460 -292
-20 292 460
-461 -20
-461 44
20 -44 461
-462 -460
-462 -461
460 461 462
-463 20
-463 -301
-20 301 463
-464 -20
-464 45
20 -45 464
-465 -463
-465 -464
463 464 465
-466 20
-466 -310
-20 310 466
-467 -20
-467 46
20 -46 467
-468 -466
-468 -467
466 467 468
-469 20
-469 -319
-20 319 469
-470 -20
-470 47
20 -47 470
-471 -469
-471 -470
469 470 471
-472 20
-472 -328
-20 328 472
-473 -20
-473 48
20 -48 473
-474 -472
-474 -473
472 473 474
-475 20
-475 -337
-20 337 475
-476 -20
-476 49
20 -49 476
-477 -475
-477 -476
475 476 477
-478 20
-478 -346
-20 346 478
-479 -20
-479 50
20 -50 479
-480 -478
-480 -479
478 479 480
-481 20
-481 -355
-20 355 481
-482 -20
-482 51
20 -51 482
-483 -481
-483 -482
481 482 483
-484 20
-484 -364
-20 364 484
-485 -20
-485 52
20 -52 485
-486 -484
-486 -485
484 485 486
-487 20
-487 -373
-20 373 487
-488 -20
-488 53
20 -53 488
-489 -487
-489 -488
487 488 489
-490 20
-490 -382
-20 382 490
-491 -20
-491 54
20 -54 491
-492 -490
-492 -491
490 491 492
-493 20
-493 -391
-20 391 493
-494 1
-494 87
-1 -87 494
-495 -87
-495 88
87 -88 495
-496 -494
-496 -495
494 495 496
-497 2
-497 87
-2 -87 497
-498 -87
-498 -396
87 396 498
-499 -497
-499 -498
497 498 499
-500 3
-500 87
-3 -87 500
-501 -87
-501 -399
87 399 501
-502 -500
-502 -501
500 501 502
-503 4
-503 87
-4 -87 503
-504 -87
-504 -402
87 402 504
-505 -503
-505 -504
503 504 505
-506 5
-506 87
-5 -87 506
-507 -87
-507 -405
87 405 507
-508 -506
-508 -507
506 507 508
-509 6
-509 87
-6 -87 509
-510 -87
-510 -408
87 408 510
-511 -509
-511 -510
509 510 511
-512 7
-512 87
-7 -87 512
-513 -87
-513 -411
87 411 513
-514 -512
-514 -513
512 513 514
-515 8
-515 87
-8 -87 515
-516 -87
-516 -414
87 414 516
-517 -515
-517 -516
515 516 517
-518 9
-518 87
-9 -87 518
-519 -87
-519 -417
87 417 519
-520 -518
-520 -519
518 519 520
-521 10
-521 87
-10 -87 521
-522 -87
-522 -420
87 420 522
-523 -521
-523 -522
521 522 523
-524 11
-524 87
-11 -87 524
-525 -87
-525 -423
87 423 525
-526 -524
-526 -525
524 525 526
-527 12
-527 87
-12 -87 527
-528 -87
-528 -426
87 426 528
-529 -527
-529 -528
527 528 529
-530 13
-530 87
-13 -87 530
-531 -87
-531 -429
87 429 531
-532 -530
-532 -531
530 531 532
-533 14
-533 87
-14 -87 533
-534 -87
-534 -432
87 432 534
-535 -533
-535 -534
533 534 535
-536 15
-536 87
-15 -87 536
-537 -87
-537 -435
87 435 537
-538 -536
-538 -537
536 537 538
-539 16
-539 87
-16 -87 539
-540 -87
-540 -438
87 438 540
-541 -539
-541 -540
539 540 541
-542 17
-542 87
-17 -87 542
-543 -87
-543 -441
87 441 543
-544 -542
-544 -543
542 543 544
-545 18
-545 87
-18 -87 545
-546 -87
-546 -444
87 444 546
-547 -545
-547 -546
545 546 547
-548 19
-548 87
-19 -87 548
-549 -87
-549 -447
87 447 549
-550 -548
-550 -549
548 549 550
-551 -87
-551 -450
87 450 551
-552 -87
-552 -453
87 453 552
-553 -87
-553 -456
87 456 553
-554 -87
-554 -459
87 459 554
-555 -87
-555 -462
87 462 555
-556 -87
-556 -465
87 465 556
-557 -87
-557 -468
87 468 557
-558 -87
-558 -471
87 471 558
-559 -87
-559 -474
87 474 559
-560 -87
-560 -477
87 477 560
-561 -87
-561 -480
87 480 561
-562 -87
-562 -483
87 483 562
-563 -87
-563 -486
87 486 563
-564 -87
-564 -489
87 489 564
-565 -87
-565 -492
87 492 565
-566 -87
-566 493
87 -493 566
-567 -54
-567 393
54 -393 567
-568 20
-568 -567
-20 567 568
568
